39 41
29
3 3 34 34
3 4 24 5
3 5 0 34
6 3 33 15
3 7 0 0
8 3 11 34
3 9 21 0
3 10 0 9
11 3 3 38
15 3 19 34
4 3 3 16
4 4 3 12
5 4 27 5
6 4 33 5
8 4 3 34
9 4 30 37
4 12 3 0
4 15 17 0
16 4 14 37
3 5 25 9
4 5 21 9
5 5 28 9
5 6 34 9
5 8 12 0
5 10 12 9
11 5 21 14
13 5 25 0
5 18 7 0
39 15 0 19
